200
150
100
100
99
99
98
98
97
96
96
96
96
96
96
95
94
94
94
93
92
91
91
90
89
89
89
88
87
86
86
86
86
85
85
85
84
84
84
84
84
84
83
82
82
81
80
78
78
77
77
77
77
77
76
76
75
75
74
74
74
74
70
70
70
69
69
69
68
68
68
68
67
66
66
66
65
65
65
64
64
64
64
64
63
63
62
62
60
58
57
56
56
56
56
56
56
55
55
55
55
55
53
53
51
51
51
50
50
49
47
47
47
44
43
43
43
42
42
40
40
38
38
38
37
37
37
36
36
35
34
34
34
33
33
33
33
32
32
30
30
29
28
28
27
27
26
26
26
25
25
25
25
25
24
24
23
23
22
22
21
21
21
19
19
19
18
17
17
16
16
15
14
14
14
13
13
13
13
12
11
11
10
10
9
9
9
8
8
8
7
7
7
6
4
4
4
4
3
2
1
1
